c SAT Generator for power-law distributed variable frequencies
c -g u -v 20 -c 91 -k 3 -p 2.750000 -b 3.200000 -f /home/schmidt/Devel/ni-kop-sat/data/ensemble/ruf20-91/ruf20-91-507 -u 1 -U 1 -s 4142558080
p cnf 20 91
-8 -18 19 0
-5 16 19 0
-10 16 17 0
4 8 13 0
16 19 -20 0
-6 -9 10 0
-3 -12 14 0
6 9 -10 0
5 -9 -14 0
-10 -11 -14 0
-3 7 -13 0
-4 15 -19 0
6 12 -18 0
-11 12 -13 0
-6 17 18 0
2 3 -9 0
7 17 -20 0
-5 6 -18 0
9 12 -15 0
-9 -12 -19 0
-1 3 -6 0
-6 -11 -17 0
-14 -16 19 0
-2 -6 8 0
-10 -14 16 0
-15 17 -19 0
7 -9 -18 0
2 4 -7 0
1 -2 19 0
9 -12 20 0
-4 6 11 0
-14 15 18 0
-6 14 19 0
-8 9 -14 0
-4 -10 -12 0
-5 7 -14 0
5 -12 20 0
4 -9 -14 0
6 12 17 0
-8 -10 14 0
12 -14 -16 0
-4 -6 -14 0
-8 11 -19 0
-9 10 11 0
-10 -13 14 0
-2 -10 16 0
-7 10 -16 0
7 -9 -19 0
2 3 -18 0
11 -17 -19 0
-7 -17 -20 0
-4 -5 14 0
-2 4 -11 0
-3 -10 -19 0
-1 -10 14 0
-2 18 19 0
14 17 -19 0
-1 9 -18 0
6 -7 -12 0
4 -11 18 0
8 -12 -15 0
4 -5 -6 0
-4 -5 20 0
-17 -18 -19 0
4 6 8 0
-6 -7 -17 0
3 10 -16 0
8 -18 -20 0
-1 -5 16 0
-12 16 17 0
-5 -6 19 0
-7 9 -15 0
1 12 -18 0
10 -18 19 0
-2 5 18 0
-3 -13 -16 0
16 -18 -20 0
-4 -6 9 0
2 14 17 0
-5 11 15 0
-1 -15 -16 0
2 9 15 0
11 15 -20 0
-5 -12 17 0
-1 -14 19 0
-8 -16 19 0
1 -4 -5 0
-3 11 16 0
6 -9 -17 0
-3 -7 -9 0
-1 -4 -13 0
